(set-logic QF_S)
(declare-fun var0 () String)
(assert (RegexIn var0 (RegexConcat (RegexPlus (RegexStar (Str2Reg "0"))) (RegexConcat (RegexPlus (RegexStar (Str2Reg "1"))) (RegexConcat (RegexUnion (RegexStar (Str2Reg "22")) (RegexStar (Str2Reg "3"))) (RegexConcat (RegexUnion (RegexStar (Str2Reg "44")) (RegexStar (Str2Reg "5"))) (RegexConcat (RegexUnion (RegexUnion (Str2Reg "666") (Str2Reg "77")) (RegexUnion (Str2Reg "888") (Str2Reg "99"))) (RegexConcat (RegexStar (RegexUnion (Str2Reg "aaa") (Str2Reg "bb"))) (RegexConcat (RegexStar (RegexUnion (Str2Reg "cc") (Str2Reg "d"))) (RegexConcat (RegexPlus (RegexStar (Str2Reg "e"))) (RegexConcat (RegexPlus (RegexPlus (Str2Reg "f"))) (RegexConcat (RegexUnion (RegexStar (Str2Reg "gg")) (RegexStar (Str2Reg "h"))) (RegexConcat (RegexStar (RegexUnion (Str2Reg "ii") (Str2Reg "j"))) (RegexConcat (RegexStar (RegexStar (Str2Reg "kk"))) (RegexConcat (RegexStar (RegexStar (Str2Reg "ll"))) (RegexConcat (RegexPlus (RegexPlus (Str2Reg "mm"))) (RegexConcat (RegexUnion (RegexStar (Str2Reg "nnn")) (RegexStar (Str2Reg "o"))) (RegexConcat (RegexPlus (RegexPlus (Str2Reg "p"))) (RegexConcat (RegexUnion (RegexUnion (Str2Reg "q") (Str2Reg "r")) (RegexUnion (Str2Reg "ss") (Str2Reg "t"))) (RegexConcat (RegexPlus (RegexPlus (Str2Reg "uuu"))) (RegexConcat (RegexPlus (RegexStar (Str2Reg "vvv"))) (RegexConcat (RegexPlus (RegexUnion (Str2Reg "ww") (Str2Reg "xx"))) (RegexConcat (RegexStar (RegexStar (Str2Reg "y"))) (RegexConcat (RegexStar (RegexStar (Str2Reg "zz"))) (RegexConcat (RegexUnion (RegexPlus (Str2Reg "AA")) (RegexPlus (Str2Reg "BB"))) (RegexConcat (RegexUnion (RegexPlus (Str2Reg "CC")) (RegexPlus (Str2Reg "DDD"))) (RegexConcat (RegexStar (RegexUnion (Str2Reg "EEE") (Str2Reg "FF"))) (RegexConcat (RegexPlus (RegexStar (Str2Reg "G"))) (RegexConcat (RegexUnion (RegexPlus (Str2Reg "HH")) (RegexPlus (Str2Reg "II"))) (RegexConcat (RegexStar (RegexUnion (Str2Reg "J") (Str2Reg "KK"))) (RegexConcat (RegexPlus (RegexPlus (Str2Reg "L"))) (RegexConcat (RegexUnion (RegexPlus (Str2Reg "MMM")) (RegexPlus (Str2Reg "N"))) (RegexConcat (RegexUnion (RegexStar (Str2Reg "O")) (RegexStar (Str2Reg "PP"))) (RegexConcat (RegexUnion (RegexPlus (Str2Reg "Q")) (RegexPlus (Str2Reg "R"))) (RegexConcat (RegexPlus (RegexStar (Str2Reg "SSS"))) (RegexConcat (RegexStar (RegexUnion (Str2Reg "TT") (Str2Reg "UU"))) (RegexConcat (RegexPlus (RegexPlus (Str2Reg "V"))) (RegexConcat (RegexStar (RegexStar (Str2Reg "W"))) (RegexConcat (RegexUnion (RegexStar (Str2Reg "XXX")) (RegexStar (Str2Reg "YY"))) (RegexConcat (RegexStar (RegexUnion (Str2Reg "Z") (Str2Reg "!"))) (RegexConcat (RegexStar (RegexStar (Str2Reg "\"\"\""))) (RegexConcat (RegexStar (RegexPlus (Str2Reg "#"))) (RegexConcat (RegexPlus (RegexPlus (Str2Reg "$"))) (RegexConcat (RegexStar (RegexUnion (Str2Reg "%%%") (Str2Reg "&"))) (RegexConcat (RegexPlus (RegexUnion (Str2Reg "'''") (Str2Reg "("))) (RegexConcat (RegexStar (RegexUnion (Str2Reg "))") (Str2Reg "**"))) (RegexConcat (RegexUnion (RegexUnion (Str2Reg "+++") (Str2Reg ",,,")) (RegexUnion (Str2Reg "-") (Str2Reg "."))) (RegexConcat (RegexUnion (RegexUnion (Str2Reg "/") (Str2Reg ":::")) (RegexUnion (Str2Reg ";") (Str2Reg "<<<"))) (RegexConcat (RegexPlus (RegexPlus (Str2Reg "==="))) (RegexConcat (RegexUnion (RegexPlus (Str2Reg ">")) (RegexPlus (Str2Reg "???"))) (RegexConcat (RegexPlus (RegexStar (Str2Reg "@"))) (RegexConcat (RegexStar (RegexStar (Str2Reg "["))) (RegexConcat (RegexStar (RegexStar (Str2Reg "\\"))) (RegexConcat (RegexPlus (RegexStar (Str2Reg "]]"))) (RegexConcat (RegexPlus (RegexUnion (Str2Reg "^^^") (Str2Reg "__"))) (RegexConcat (RegexPlus (RegexPlus (Str2Reg "``"))) (RegexConcat (RegexStar (RegexUnion (Str2Reg "{") (Str2Reg "||"))) (RegexConcat (RegexStar (RegexUnion (Str2Reg "}}}") (Str2Reg "~~~"))) (RegexConcat (RegexUnion (RegexPlus (Str2Reg "0")) (RegexPlus (Str2Reg "1"))) (RegexConcat (RegexPlus (RegexStar (Str2Reg "222"))) (RegexConcat (RegexPlus (RegexPlus (Str2Reg "333"))) (RegexConcat (RegexStar (RegexStar (Str2Reg "444"))) (RegexConcat (RegexUnion (RegexUnion (Str2Reg "55") (Str2Reg "66")) (RegexUnion (Str2Reg "777") (Str2Reg "88"))) (RegexConcat (RegexStar (RegexStar (Str2Reg "99"))) (RegexConcat (RegexUnion (RegexPlus (Str2Reg "aaa")) (RegexPlus (Str2Reg "bb"))) (RegexConcat (RegexUnion (RegexUnion (Str2Reg "c") (Str2Reg "dd")) (RegexUnion (Str2Reg "ee") (Str2Reg "fff"))) (RegexConcat (RegexStar (RegexStar (Str2Reg "ggg"))) (RegexConcat (RegexUnion (RegexStar (Str2Reg "hhh")) (RegexStar (Str2Reg "iii"))) (RegexConcat (RegexPlus (RegexStar (Str2Reg "j"))) (RegexConcat (RegexPlus (RegexStar (Str2Reg "kkk"))) (RegexConcat (RegexPlus (RegexStar (Str2Reg "lll"))) (RegexConcat (RegexPlus (RegexStar (Str2Reg "mmm"))) (RegexConcat (RegexPlus (RegexPlus (Str2Reg "nn"))) (RegexConcat (RegexPlus (RegexPlus (Str2Reg "oo"))) (RegexConcat (RegexUnion (RegexUnion (Str2Reg "pp") (Str2Reg "qq")) (RegexUnion (Str2Reg "r") (Str2Reg "sss"))) (RegexConcat (RegexUnion (RegexStar (Str2Reg "ttt")) (RegexStar (Str2Reg "u"))) (RegexConcat (RegexPlus (RegexStar (Str2Reg "vvv"))) (RegexConcat (RegexStar (RegexStar (Str2Reg "www"))) (RegexConcat (RegexPlus (RegexStar (Str2Reg "x"))) (RegexConcat (RegexPlus (RegexUnion (Str2Reg "yyy") (Str2Reg "z"))) (RegexConcat (RegexUnion (RegexPlus (Str2Reg "A")) (RegexPlus (Str2Reg "BBB"))) (RegexConcat (RegexUnion (RegexStar (Str2Reg "CC")) (RegexStar (Str2Reg "DD"))) (RegexConcat (RegexPlus (RegexUnion (Str2Reg "EEE") (Str2Reg "FFF"))) (RegexConcat (RegexPlus (RegexPlus (Str2Reg "G"))) (RegexConcat (RegexStar (RegexUnion (Str2Reg "HH") (Str2Reg "I"))) (RegexConcat (RegexStar (RegexStar (Str2Reg "J"))) (RegexConcat (RegexUnion (RegexUnion (Str2Reg "KKK") (Str2Reg "LL")) (RegexUnion (Str2Reg "M") (Str2Reg "NNN"))) (RegexConcat (RegexStar (RegexStar (Str2Reg "OO"))) (RegexConcat (RegexUnion (RegexUnion (Str2Reg "PPP") (Str2Reg "QQQ")) (RegexUnion (Str2Reg "RRR") (Str2Reg "SSS"))) (RegexConcat (RegexStar (RegexPlus (Str2Reg "TT"))) (RegexConcat (RegexUnion (RegexStar (Str2Reg "U")) (RegexStar (Str2Reg "VVV"))) (RegexConcat (RegexUnion (RegexPlus (Str2Reg "WWW")) (RegexPlus (Str2Reg "XX"))) (RegexConcat (RegexStar (RegexPlus (Str2Reg "YYY"))) (RegexConcat (RegexPlus (RegexPlus (Str2Reg "ZZ"))) (RegexConcat (RegexPlus (RegexPlus (Str2Reg "!"))) (RegexConcat (RegexStar (RegexPlus (Str2Reg "\""))) (RegexConcat (RegexStar (RegexStar (Str2Reg "###"))) (RegexConcat (RegexUnion (RegexPlus (Str2Reg "$$$")) (RegexPlus (Str2Reg "%"))) (RegexConcat (RegexPlus (RegexUnion (Str2Reg "&") (Str2Reg "''"))) (RegexConcat (RegexUnion (RegexStar (Str2Reg "((")) (RegexStar (Str2Reg "))"))) (RegexConcat (RegexStar (RegexStar (Str2Reg "***"))) (RegexConcat (RegexUnion (RegexPlus (Str2Reg "++")) (RegexPlus (Str2Reg ",,,"))) (RegexConcat (RegexUnion (RegexStar (Str2Reg "-")) (RegexStar (Str2Reg ".."))) (RegexConcat (RegexPlus (RegexStar (Str2Reg "/"))) (RegexConcat (RegexStar (RegexPlus (Str2Reg ":"))) (RegexConcat (RegexStar (RegexPlus (Str2Reg ";;"))) (RegexConcat (RegexPlus (RegexUnion (Str2Reg "<<") (Str2Reg "=="))) (RegexConcat (RegexPlus (RegexUnion (Str2Reg ">>") (Str2Reg "?"))) (RegexConcat (RegexPlus (RegexPlus (Str2Reg "@@"))) (RegexConcat (RegexPlus (RegexUnion (Str2Reg "[") (Str2Reg "\\\\\\"))) (RegexConcat (RegexUnion (RegexUnion (Str2Reg "]]") (Str2Reg "^")) (RegexUnion (Str2Reg "_") (Str2Reg "``"))) (RegexConcat (RegexStar (RegexPlus (Str2Reg "{{"))) (RegexConcat (RegexStar (RegexUnion (Str2Reg "|||") (Str2Reg "}"))) (RegexConcat (RegexUnion (RegexStar (Str2Reg "~~~")) (RegexStar (Str2Reg "00"))) (RegexConcat (RegexUnion (RegexPlus (Str2Reg "11")) (RegexPlus (Str2Reg "222"))) (RegexConcat (RegexUnion (RegexPlus (Str2Reg "333")) (RegexPlus (Str2Reg "44"))) (RegexConcat (RegexPlus (RegexUnion (Str2Reg "5") (Str2Reg "666"))) (RegexConcat (RegexStar (RegexUnion (Str2Reg "777") (Str2Reg "88"))) (RegexConcat (RegexPlus (RegexUnion (Str2Reg "99") (Str2Reg "aaa"))) (RegexConcat (RegexPlus (RegexStar (Str2Reg "bbb"))) (RegexConcat (RegexUnion (RegexUnion (Str2Reg "c") (Str2Reg "dd")) (RegexUnion (Str2Reg "eee") (Str2Reg "ff"))) (RegexConcat (RegexStar (RegexUnion (Str2Reg "ggg") (Str2Reg "hhh"))) (RegexConcat (RegexPlus (RegexPlus (Str2Reg "i"))) (RegexConcat (RegexPlus (RegexStar (Str2Reg "jj"))) (RegexConcat (RegexUnion (RegexUnion (Str2Reg "kk") (Str2Reg "lll")) (RegexUnion (Str2Reg "m") (Str2Reg "nn"))) (RegexConcat (RegexPlus (RegexUnion (Str2Reg "o") (Str2Reg "pp"))) (RegexConcat (RegexStar (RegexPlus (Str2Reg "q"))) (RegexConcat (RegexUnion (RegexPlus (Str2Reg "rr")) (RegexPlus (Str2Reg "ss"))) (RegexConcat (RegexUnion (RegexStar (Str2Reg "t")) (RegexStar (Str2Reg "u"))) (RegexConcat (RegexPlus (RegexPlus (Str2Reg "vvv"))) (RegexConcat (RegexUnion (RegexStar (Str2Reg "w")) (RegexStar (Str2Reg "xx"))) (RegexConcat (RegexUnion (RegexPlus (Str2Reg "yyy")) (RegexPlus (Str2Reg "z"))) (RegexConcat (RegexPlus (RegexStar (Str2Reg "AA"))) (RegexConcat (RegexPlus (RegexUnion (Str2Reg "BBB") (Str2Reg "CCC"))) (RegexConcat (RegexStar (RegexStar (Str2Reg "D"))) (RegexConcat (RegexUnion (RegexUnion (Str2Reg "EEE") (Str2Reg "FFF")) (RegexUnion (Str2Reg "GG") (Str2Reg "HH"))) (RegexConcat (RegexPlus (RegexPlus (Str2Reg "III"))) (RegexConcat (RegexStar (RegexStar (Str2Reg "JJ"))) (RegexConcat (RegexUnion (RegexPlus (Str2Reg "K")) (RegexPlus (Str2Reg "LL"))) (RegexConcat (RegexUnion (RegexStar (Str2Reg "MMM")) (RegexStar (Str2Reg "N"))) (RegexConcat (RegexStar (RegexUnion (Str2Reg "OO") (Str2Reg "P"))) (RegexConcat (RegexPlus (RegexUnion (Str2Reg "QQ") (Str2Reg "RRR"))) (RegexConcat (RegexStar (RegexPlus (Str2Reg "SSS"))) (RegexConcat (RegexUnion (RegexStar (Str2Reg "TT")) (RegexStar (Str2Reg "UU"))) (RegexConcat (RegexStar (RegexPlus (Str2Reg "VVV"))) (RegexConcat (RegexUnion (RegexUnion (Str2Reg "WWW") (Str2Reg "XX")) (RegexUnion (Str2Reg "YY") (Str2Reg "Z"))) (RegexConcat (RegexUnion (RegexStar (Str2Reg "!!!")) (RegexStar (Str2Reg "\""))) (RegexConcat (RegexPlus (RegexPlus (Str2Reg "###"))) (RegexConcat (RegexPlus (RegexPlus (Str2Reg "$"))) (RegexConcat (RegexPlus (RegexStar (Str2Reg "%"))) (RegexConcat (RegexUnion (RegexStar (Str2Reg "&&")) (RegexStar (Str2Reg "''"))) (RegexConcat (RegexUnion (RegexUnion (Str2Reg "(((") (Str2Reg "))")) (RegexUnion (Str2Reg "*") (Str2Reg "++"))) (RegexConcat (RegexPlus (RegexPlus (Str2Reg ","))) (RegexConcat (RegexUnion (RegexUnion (Str2Reg "--") (Str2Reg "..")) (RegexUnion (Str2Reg "/") (Str2Reg "::"))) (RegexConcat (RegexPlus (RegexStar (Str2Reg ";;"))) (RegexConcat (RegexPlus (RegexPlus (Str2Reg "<<<"))) (RegexConcat (RegexStar (RegexUnion (Str2Reg "==") (Str2Reg ">>>"))) (RegexConcat (RegexPlus (RegexUnion (Str2Reg "??") (Str2Reg "@@@"))) (RegexConcat (RegexStar (RegexPlus (Str2Reg "["))) (RegexConcat (RegexUnion (RegexStar (Str2Reg "\\\\\\")) (RegexStar (Str2Reg "]]]"))) (RegexConcat (RegexUnion (RegexPlus (Str2Reg "^")) (RegexPlus (Str2Reg "__"))) (RegexConcat (RegexStar (RegexStar (Str2Reg "```"))) (RegexConcat (RegexPlus (RegexPlus (Str2Reg "{"))) (RegexConcat (RegexStar (RegexUnion (Str2Reg "||") (Str2Reg "}}}"))) (RegexConcat (RegexUnion (RegexUnion (Str2Reg "~~~") (Str2Reg "00")) (RegexUnion (Str2Reg "1") (Str2Reg "222"))) (RegexConcat (RegexPlus (RegexStar (Str2Reg "33"))) (RegexConcat (RegexStar (RegexPlus (Str2Reg "4"))) (RegexConcat (RegexUnion (RegexUnion (Str2Reg "5") (Str2Reg "666")) (RegexUnion (Str2Reg "777") (Str2Reg "8"))) (RegexConcat (RegexUnion (RegexPlus (Str2Reg "999")) (RegexPlus (Str2Reg "a"))) (RegexConcat (RegexPlus (RegexPlus (Str2Reg "b"))) (RegexConcat (RegexStar (RegexStar (Str2Reg "ccc"))) (RegexConcat (RegexPlus (RegexPlus (Str2Reg "d"))) (RegexConcat (RegexPlus (RegexUnion (Str2Reg "e") (Str2Reg "fff"))) (RegexConcat (RegexPlus (RegexUnion (Str2Reg "g") (Str2Reg "hhh"))) (RegexConcat (RegexPlus (RegexUnion (Str2Reg "i") (Str2Reg "j"))) (RegexConcat (RegexUnion (RegexUnion (Str2Reg "k") (Str2Reg "l")) (RegexUnion (Str2Reg "m") (Str2Reg "nn"))) (RegexConcat (RegexUnion (RegexPlus (Str2Reg "ooo")) (RegexPlus (Str2Reg "ppp"))) (RegexConcat (RegexPlus (RegexUnion (Str2Reg "q") (Str2Reg "rrr"))) (RegexConcat (RegexUnion (RegexPlus (Str2Reg "ss")) (RegexPlus (Str2Reg "tt"))) (RegexConcat (RegexPlus (RegexStar (Str2Reg "u"))) (RegexConcat (RegexStar (RegexPlus (Str2Reg "vv"))) (RegexConcat (RegexUnion (RegexStar (Str2Reg "ww")) (RegexStar (Str2Reg "xx"))) (RegexConcat (RegexPlus (RegexStar (Str2Reg "yy"))) (RegexConcat (RegexUnion (RegexPlus (Str2Reg "zz")) (RegexPlus (Str2Reg "A"))) (RegexConcat (RegexUnion (RegexUnion (Str2Reg "BBB") (Str2Reg "C")) (RegexUnion (Str2Reg "DD") (Str2Reg "E"))) (RegexConcat (RegexStar (RegexPlus (Str2Reg "FF"))) (RegexConcat (RegexUnion (RegexUnion (Str2Reg "GGG") (Str2Reg "HH")) (RegexUnion (Str2Reg "II") (Str2Reg "JJJ"))) (RegexConcat (RegexPlus (RegexStar (Str2Reg "KKK"))) (RegexConcat (RegexPlus (RegexStar (Str2Reg "L"))) (RegexConcat (RegexPlus (RegexStar (Str2Reg "MM"))) (RegexConcat (RegexStar (RegexUnion (Str2Reg "NNN") (Str2Reg "OOO"))) (RegexConcat (RegexUnion (RegexStar (Str2Reg "PPP")) (RegexStar (Str2Reg "QQQ"))) (RegexConcat (RegexStar (RegexUnion (Str2Reg "RRR") (Str2Reg "S"))) (RegexConcat (RegexUnion (RegexUnion (Str2Reg "TTT") (Str2Reg "U")) (RegexUnion (Str2Reg "V") (Str2Reg "W"))) (RegexConcat (RegexPlus (RegexPlus (Str2Reg "X"))) (RegexConcat (RegexStar (RegexUnion (Str2Reg "YYY") (Str2Reg "ZZ"))) (RegexConcat (RegexStar (RegexUnion (Str2Reg "!!") (Str2Reg "\""))) (RegexConcat (RegexPlus (RegexUnion (Str2Reg "##") (Str2Reg "$$$"))) (RegexStar (RegexStar (Str2Reg "%%")))))))))))))))))))))))))))))))))))))))))))))))))))))))))))))))))))))))))))))))))))))))))))))))))))))))))))))))))))))))))))))))))))))))))))))))))))))))))))))))))))))))))))))))))))))))))))))))))))))))))
(check-sat)